NAME : LPS-n32-m344
COMMENT : (Lartu-Peter-Santi Plot, instance 11944 out of 39200. 32 customers.)
TYPE : CVRP
DIMENSION : 32
EDGE_WEIGHT_TYPE : EUC_2D
CAPACITY : 117
NODE_COORD_SECTION
 1 77 12
 2 51 13
 3 54 3
 4 52 15
 5 36 68
 6 63 63
 7 92 83
 8 79 29
 9 14 68
 10 94 68
 11 34 63
 12 5 45
 13 85 52
 14 36 22
 15 14 15
 16 84 80
 17 2 29
 18 22 95
 19 0 30
 20 11 36
 21 40 9
 22 29 74
 23 17 32
 24 34 43
 25 78 55
 26 41 49
 27 76 49
 28 44 66
 29 78 34
 30 93 35
 31 73 69
 32 88 55
DEMAND_SECTION
1 0
2 33
3 7
4 68
5 112
6 6
7 108
8 23
9 39
10 37
11 66
12 51
13 85
14 63
15 37
16 15
17 108
18 87
19 55
20 58
21 37
22 83
23 3
24 68
25 92
26 50
27 105
28 107
29 57
30 105
31 19
32 19
DEPOT_SECTION
 1
 -1
EOF
